
Gurobi 10.0.1 (win64) logging started Wed Apr 12 07:35:28 2023

Set parameter LogFile to value "results/log/Fattahi_setup_11.log"
Gurobi Optimizer version 10.0.1 build v10.0.1rc0 (win64)

CPU model: AMD Ryzen 7 3700X 8-Core Processor, instruction set [SSE2|AVX|AVX2]
Thread count: 8 physical cores, 16 logical processors, using up to 16 threads

Optimize a model with 238 rows, 137 columns and 1014 nonzeros
Model fingerprint: 0x607cb318
Variable types: 34 continuous, 103 integer (103 binary)
Coefficient statistics:
  Matrix range     [1e+00, 1e+09]
  Objective range  [1e+00, 1e+00]
  Bounds range     [1e+00, 1e+00]
  RHS range        [1e+00, 3e+09]
Warning: Model contains large matrix coefficients
Warning: Model contains large rhs
         Consider reformulating model or setting NumericFocus parameter
         to avoid numerical issues.
Presolve removed 46 rows and 12 columns
Presolve time: 0.00s
Presolved: 192 rows, 125 columns, 967 nonzeros
Variable types: 33 continuous, 92 integer (92 binary)
Found heuristic solution: objective 6489.0000000
Found heuristic solution: objective 6171.9999586

Root relaxation: objective 3.195000e+03, 37 iterations, 0.00 seconds (0.00 work units)

    Nodes    |    Current Node    |     Objective Bounds      |     Work
 Expl Unexpl |  Obj  Depth IntInf | Incumbent    BestBd   Gap | It/Node Time

     0     0 3195.00003    0   17 6171.99996 3195.00003  48.2%     -    0s
H    0     0                    5219.0000000 3195.00003  38.8%     -    0s
H    0     0                    5024.0000000 3195.00003  36.4%     -    0s
     0     0 3195.00003    0   21 5024.00000 3195.00003  36.4%     -    0s
     0     0 3238.68794    0   20 5024.00000 3238.68794  35.5%     -    0s
H    0     0                    4775.9999647 3238.68794  32.2%     -    0s
     0     0 3238.68794    0   19 4775.99996 3238.68794  32.2%     -    0s
H    0     0                    4393.0000000 3324.90080  24.3%     -    0s
     0     0 3324.90080    0   20 4393.00000 3324.90080  24.3%     -    0s
     0     0 3325.21749    0   20 4393.00000 3325.21749  24.3%     -    0s
     0     0 3325.21749    0   20 4393.00000 3325.21749  24.3%     -    0s
     0     0 3348.97922    0   19 4393.00000 3348.97922  23.8%     -    0s
     0     0 3350.25039    0   19 4393.00000 3350.25039  23.7%     -    0s
     0     0 3353.18517    0   20 4393.00000 3353.18517  23.7%     -    0s
     0     0 3355.21029    0   20 4393.00000 3355.21029  23.6%     -    0s
     0     0 3356.80561    0   20 4393.00000 3356.80561  23.6%     -    0s
     0     0 3357.25458    0   20 4393.00000 3357.25458  23.6%     -    0s
     0     0 3357.25458    0   20 4393.00000 3357.25458  23.6%     -    0s
     0     0 3357.25458    0   21 4393.00000 3357.25458  23.6%     -    0s
     0     0 3357.25458    0   20 4393.00000 3357.25458  23.6%     -    0s
     0     0 3357.25458    0   20 4393.00000 3357.25458  23.6%     -    0s
     0     2 3357.25458    0   20 4393.00000 3357.25458  23.6%     -    0s
H   31    40                    4392.9999988 3392.60947  22.8%   7.9    0s
H   35    40                    4392.9999979 3392.60947  22.8%   7.7    0s
H   36    40                    4392.9999975 3392.60947  22.8%   7.5    0s
H   37    40                    4392.9999918 3392.60947  22.8%   7.4    0s
H  123   132                    4164.9999979 3392.60947  18.5%   4.8    0s
H  195   171                    4158.0000000 3393.08989  18.4%   4.4    0s
H  277   210                    4135.0000000 3406.41566  17.6%   4.2    0s
H  393   264                    4134.9999969 3414.50889  17.4%   4.2    0s
H  413   264                    4134.9999948 3414.50889  17.4%   4.2    0s
H 6334  1111                    4134.9999941 3571.00000  13.6%   4.4    0s

Cutting planes:
  Learned: 2
  Gomory: 17
  Implied bound: 3
  MIR: 41
  Flow cover: 79
  RLT: 3

Explored 10411 nodes (55649 simplex iterations) in 0.88 seconds (0.45 work units)
Thread count was 16 (of 16 available processors)

Solution count 10: 4135 4135 4135 ... 4393

Optimal solution found (tolerance 1.00e-04)
Best objective 4.135000000000e+03, best bound 4.135000000000e+03, gap 0.0000%
Warning: variable name "y[job:0, stage:0, machine:1]" has a space
Warning: constraint name "precedence between 1,0 to 0,0 if x_[j,l,h,z,i]=1" has a space
Warning: to let Gurobi read it back, use rlp format
Warning: variable name "y[job:0, stage:0, machine:1]" has a space
Warning: constraint name "precedence between 1,0 to 0,0 if x_[j,l,h,z,i]=1" has a space
Warning: default variable names used to write mps file
Warning: default constraint names used to write mps file
Warning: variable name "y[job:0, stage:0, machine:1]" has a space
Warning: default variable names used to write solution file
